p cnf 590 322
DNF 63 -96 -97 -98 0 -21 -61 63 0 -22 -62 63 0 -24 63 -64 0 -21 -22 -24 63 -98 0 -21 23 -546 -548 -426 -307 -308 -187 -61 -576 -577 -456 -458 -336 -217 -218 0 -22 23 -546 -548 -426 -307 -308 -187 -62 -576 -577 -456 -458 -336 -217 -218 0 23 -546 -548 -426 -307 -308 -187 -63 -576 -577 -456 -458 -336 -217 -218 0 -22 -61 63 -64 -96 0 -24 -61 -62 63 -96 0 -24 -62 63 -96 -97 0 -21 -24 -62 63 -97 0 -22 63 -64 -96 -97 0 -21 -22 63 -64 -97 0 -61 -62 63 -96 -98 0 -21 63 -97 -98 0 -61 63 -64 -96 -98 0 -22 -24 63 -97 -98 0 0
DNF 71 -102 -103 -104 0 -29 -69 71 0 -30 -70 71 0 -32 71 -72 0 -29 -30 -32 71 -104 0 -29 31 -552 -554 -432 -313 -314 -193 -69 -582 -583 -462 -464 -342 -223 -224 0 -30 31 -552 -554 -432 -313 -314 -193 -70 -582 -583 -462 -464 -342 -223 -224 0 31 -552 -554 -432 -313 -314 -193 -71 -582 -583 -462 -464 -342 -223 -224 0 -30 -69 71 -72 -102 0 -32 -69 -70 71 -102 0 -32 -70 71 -102 -103 0 -29 -32 -70 71 -103 0 -30 71 -72 -102 -103 0 -29 -30 71 -72 -103 0 -69 -70 71 -102 -104 0 -29 71 -103 -104 0 -69 71 -72 -102 -104 0 -30 -32 71 -103 -104 0 0
DNF 45 -84 -85 -86 0 45 -47 -48 -84 -86 0 45 -46 -47 -84 -86 0 -6 45 -46 0 -7 45 -47 0 -8 45 -48 0 -6 -7 -8 45 -86 0 -385 -386 5 -534 -536 -414 -45 -564 -565 -444 -446 -475 -476 -355 -504 0 -6 45 -47 -48 -84 0 -8 45 -46 -47 -84 0 -7 45 -85 -86 0 -6 -7 45 -48 -85 0 -6 45 -48 -84 -85 0 -6 -8 45 -85 -86 0 -8 45 -46 -84 -85 0 -7 -8 45 -46 -85 0 0
DNF 79 -108 -109 -110 0 -37 -77 79 0 -38 -78 79 0 -40 79 -80 0 -37 -38 -40 79 -110 0 -37 39 -558 -560 -438 -319 -320 -199 -588 -77 -589 -468 -470 -348 -229 -230 0 -38 39 -558 -560 -438 -319 -320 -199 -588 -78 -589 -468 -470 -348 -229 -230 0 39 -558 -560 -438 -319 -320 -199 -588 -79 -589 -468 -470 -348 -229 -230 0 -38 -77 79 -80 -108 0 -40 -77 -78 79 -108 0 -40 -78 79 -108 -109 0 -37 -40 -78 79 -109 0 -38 79 -80 -108 -109 0 -37 -38 79 -80 -109 0 -77 -78 79 -108 -110 0 -37 79 -109 -110 0 -77 79 -80 -108 -110 0 -38 -40 79 -109 -110 0 0
DNF 49 -87 -88 -89 0 49 -51 -52 -87 -89 0 49 -50 -51 -87 -89 0 -10 49 -50 0 -11 49 -51 0 -12 49 -52 0 -10 -11 -12 49 -89 0 -388 -389 9 -537 -539 -417 -49 -567 -568 -447 -449 -478 -479 -358 -507 0 -10 49 -51 -52 -87 0 -12 49 -50 -51 -87 0 -11 49 -88 -89 0 -10 -11 49 -52 -88 0 -10 49 -52 -87 -88 0 -10 -12 49 -88 -89 0 -12 49 -50 -87 -88 0 -11 -12 49 -50 -88 0 0
DNF 43 -81 -82 -83 0 -1 -41 43 0 -2 -42 43 0 -4 43 -44 0 -1 -2 -4 43 -83 0 -1 3 -531 -533 -411 -292 -293 -41 -172 -561 -562 -441 -443 -321 -202 -203 0 -2 3 -531 -533 -411 -292 -293 -42 -172 -561 -562 -441 -443 -321 -202 -203 0 3 -531 -533 -411 -292 -293 -43 -172 -561 -562 -441 -443 -321 -202 -203 0 -2 -41 43 -44 -81 0 -4 -41 -42 43 -81 0 -4 -42 43 -81 -82 0 -1 -4 -42 43 -82 0 -2 43 -44 -81 -82 0 -1 -2 43 -44 -82 0 -41 -42 43 -81 -83 0 -1 43 -82 -83 0 -41 43 -44 -81 -83 0 -2 -4 43 -82 -83 0 0
DNF 57 -93 -94 -95 0 57 -59 -60 -93 -95 0 57 -58 -59 -93 -95 0 -18 57 -58 0 -19 57 -59 0 -20 57 -60 0 -18 -19 -20 57 -95 0 -513 -394 -395 17 -543 -545 -423 -57 -573 -574 -453 -455 -484 -485 -364 0 -18 57 -59 -60 -93 0 -20 57 -58 -59 -93 0 -19 57 -94 -95 0 -18 -19 57 -60 -94 0 -18 57 -60 -93 -94 0 -18 -20 57 -94 -95 0 -20 57 -58 -93 -94 0 -19 -20 57 -58 -94 0 0
DNF 77 -108 -109 -110 0 77 -79 -80 -108 -110 0 77 -78 -79 -108 -110 0 -38 77 -78 0 -39 77 -79 0 -40 77 -80 0 -38 -39 -40 77 -110 0 -528 -409 -410 37 -558 -560 -438 -588 -77 -589 -468 -470 -499 -500 -379 0 -38 77 -79 -80 -108 0 -40 77 -78 -79 -108 0 -39 77 -109 -110 0 -38 -39 77 -80 -109 0 -38 77 -80 -108 -109 0 -38 -40 77 -109 -110 0 -40 77 -78 -108 -109 0 -39 -40 77 -78 -109 0 0
DNF 75 -105 -106 -107 0 -33 -73 75 0 -34 -74 75 0 -36 75 -76 0 -33 -34 -36 75 -107 0 -33 35 -555 -557 -435 -316 -317 -196 -73 -585 -586 -465 -467 -345 -226 -227 0 -34 35 -555 -557 -435 -316 -317 -196 -74 -585 -586 -465 -467 -345 -226 -227 0 35 -555 -557 -435 -316 -317 -196 -75 -585 -586 -465 -467 -345 -226 -227 0 -34 -73 75 -76 -105 0 -36 -73 -74 75 -105 0 -36 -74 75 -105 -106 0 -33 -36 -74 75 -106 0 -34 75 -76 -105 -106 0 -33 -34 75 -76 -106 0 -73 -74 75 -105 -107 0 -33 75 -106 -107 0 -73 75 -76 -105 -107 0 -34 -36 75 -106 -107 0 0
DNF 73 -105 -106 -107 0 73 -76 -75 -105 -107 0 73 -74 -75 -105 -107 0 -34 73 -74 0 -35 73 -75 0 -36 73 -76 0 -34 -35 -36 73 -107 0 -525 -406 -407 33 -555 -557 -435 -585 -73 -586 -465 -467 -496 -497 -376 0 -34 73 -76 -75 -105 0 -36 73 -74 -75 -105 0 -35 73 -106 -107 0 -34 -35 73 -76 -106 0 -34 73 -76 -105 -106 0 -34 -36 73 -106 -107 0 -36 73 -74 -105 -106 0 -35 -36 73 -74 -106 0 0
DNF 51 -87 -88 -89 0 -9 -49 51 0 -10 -50 51 0 -12 51 -52 0 -9 -10 -12 51 -89 0 -9 11 -537 -539 -417 -298 -299 -49 -178 -567 -568 -447 -449 -327 -208 -209 0 -10 11 -537 -539 -417 -298 -299 -50 -178 -567 -568 -447 -449 -327 -208 -209 0 11 -537 -539 -417 -298 -299 -51 -178 -567 -568 -447 -449 -327 -208 -209 0 -10 -49 51 -52 -87 0 -12 -49 -50 51 -87 0 -12 -50 51 -87 -88 0 -9 -12 -50 51 -88 0 -10 51 -52 -87 -88 0 -9 -10 51 -52 -88 0 -49 -50 51 -87 -89 0 -9 51 -88 -89 0 -49 51 -52 -87 -89 0 -10 -12 51 -88 -89 0 0
DNF 47 -84 -85 -86 0 -5 -45 47 0 -6 -46 47 0 -8 47 -48 0 -5 -6 -8 47 -86 0 -5 7 -534 -536 -414 -295 -296 -45 -175 -564 -565 -444 -446 -324 -205 -206 0 -6 7 -534 -536 -414 -295 -296 -46 -175 -564 -565 -444 -446 -324 -205 -206 0 7 -534 -536 -414 -295 -296 -47 -175 -564 -565 -444 -446 -324 -205 -206 0 -6 -45 47 -48 -84 0 -8 -45 -46 47 -84 0 -8 -46 47 -84 -85 0 -5 -8 -46 47 -85 0 -6 47 -48 -84 -85 0 -5 -6 47 -48 -85 0 -45 -46 47 -84 -86 0 -5 47 -85 -86 0 -45 47 -48 -84 -86 0 -6 -8 47 -85 -86 0 0
DNF 61 -96 -97 -98 0 61 -63 -64 -96 -98 0 61 -62 -63 -96 -98 0 -22 61 -62 0 -23 61 -63 0 -24 61 -64 0 -22 -23 -24 61 -98 0 -516 -397 -398 21 -546 -548 -426 -61 -576 -577 -456 -458 -487 -488 -367 0 -22 61 -63 -64 -96 0 -24 61 -62 -63 -96 0 -23 61 -97 -98 0 -22 -23 61 -64 -97 0 -22 61 -64 -96 -97 0 -22 -24 61 -97 -98 0 -24 61 -62 -96 -97 0 -23 -24 61 -62 -97 0 0
DNF 59 -93 -94 -95 0 -17 -57 59 0 -18 -58 59 0 -20 59 -60 0 -17 -18 -20 59 -95 0 -17 19 -543 -545 -423 -304 -305 -184 -57 -573 -574 -453 -455 -333 -214 -215 0 -18 19 -543 -545 -423 -304 -305 -184 -58 -573 -574 -453 -455 -333 -214 -215 0 19 -543 -545 -423 -304 -305 -184 -59 -573 -574 -453 -455 -333 -214 -215 0 -18 -57 59 -60 -93 0 -20 -57 -58 59 -93 0 -20 -58 59 -93 -94 0 -17 -20 -58 59 -94 0 -18 59 -60 -93 -94 0 -17 -18 59 -60 -94 0 -57 -58 59 -93 -95 0 -17 59 -94 -95 0 -57 59 -60 -93 -95 0 -18 -20 59 -94 -95 0 0
DNF 41 -81 -82 -83 0 41 -43 -44 -81 -83 0 41 -42 -43 -81 -83 0 -2 41 -42 0 -3 41 -43 0 -4 41 -44 0 -2 -3 -4 41 -83 0 1 -531 -533 -411 -41 -561 -562 -441 -443 -472 -473 -352 -501 -382 -383 0 -2 41 -43 -44 -81 0 -4 41 -42 -43 -81 0 -3 41 -82 -83 0 -2 -3 41 -44 -82 0 -2 41 -44 -81 -82 0 -2 -4 41 -82 -83 0 -4 41 -42 -81 -82 0 -3 -4 41 -42 -82 0 0
DNF 65 -99 -100 -101 0 65 -67 -68 -99 -101 0 65 -66 -67 -99 -101 0 -26 65 -66 0 -27 65 -67 0 -28 65 -68 0 -26 -27 -28 65 -101 0 -519 -400 -401 25 -549 -551 -429 -65 -579 -580 -459 -461 -490 -491 -370 0 -26 65 -67 -68 -99 0 -28 65 -66 -67 -99 0 -27 65 -100 -101 0 -26 -27 65 -68 -100 0 -26 65 -68 -99 -100 0 -26 -28 65 -100 -101 0 -28 65 -66 -99 -100 0 -27 -28 65 -66 -100 0 0
DNF 69 -102 -103 -104 0 69 -71 -72 -102 -104 0 69 -70 -71 -102 -104 0 -30 69 -70 0 -31 69 -71 0 -32 69 -72 0 -30 -31 -32 69 -104 0 -522 -403 -404 29 -552 -554 -432 -69 -582 -583 -462 -464 -493 -494 -373 0 -30 69 -71 -72 -102 0 -32 69 -70 -71 -102 0 -31 69 -103 -104 0 -30 -31 69 -72 -103 0 -30 69 -72 -102 -103 0 -30 -32 69 -103 -104 0 -32 69 -70 -102 -103 0 -31 -32 69 -70 -103 0 0
DNF 67 -99 -100 -101 0 -25 -65 67 0 -26 -66 67 0 -28 67 -68 0 -25 -26 -28 67 -101 0 -25 27 -549 -551 -429 -310 -311 -190 -65 -579 -580 -459 -461 -339 -220 -221 0 -26 27 -549 -551 -429 -310 -311 -190 -66 -579 -580 -459 -461 -339 -220 -221 0 27 -549 -551 -429 -310 -311 -190 -67 -579 -580 -459 -461 -339 -220 -221 0 -26 -65 67 -68 -99 0 -28 -65 -66 67 -99 0 -28 -66 67 -99 -100 0 -25 -28 -66 67 -100 0 -26 67 -68 -99 -100 0 -25 -26 67 -68 -100 0 -65 -66 67 -99 -101 0 -25 67 -100 -101 0 -65 67 -68 -99 -101 0 -26 -28 67 -100 -101 0 0
DNF 55 -90 -91 -92 0 -13 -53 55 0 -14 -54 55 0 -16 55 -56 0 -13 -14 -16 55 -92 0 -13 15 -540 -542 -420 -301 -302 -53 -181 -570 -571 -450 -452 -330 -211 -212 0 -14 15 -540 -542 -420 -301 -302 -54 -181 -570 -571 -450 -452 -330 -211 -212 0 15 -540 -542 -420 -301 -302 -55 -181 -570 -571 -450 -452 -330 -211 -212 0 -14 -53 55 -56 -90 0 -16 -53 -54 55 -90 0 -16 -54 55 -90 -91 0 -13 -16 -54 55 -91 0 -14 55 -56 -90 -91 0 -13 -14 55 -56 -91 0 -53 -54 55 -90 -92 0 -13 55 -91 -92 0 -53 55 -56 -90 -92 0 -14 -16 55 -91 -92 0 0
DNF 53 -90 -91 -92 0 53 -55 -56 -90 -92 0 53 -54 -55 -90 -92 0 -14 53 -54 0 -15 53 -55 0 -16 53 -56 0 -14 -15 -16 53 -92 0 -391 -392 13 -540 -542 -420 -53 -570 -571 -450 -452 -481 -482 -361 -510 0 -14 53 -55 -56 -90 0 -16 53 -54 -55 -90 0 -15 53 -91 -92 0 -14 -15 53 -56 -91 0 -14 53 -56 -90 -91 0 -14 -16 53 -91 -92 0 -16 53 -54 -90 -91 0 -15 -16 53 -54 -91 0 0
DNF 46 -84 -85 -86 0 46 -48 -84 -85 0 -5 -45 46 0 -7 46 -47 0 -8 46 -48 0 -5 -7 -8 46 -86 0 -5 6 -265 -534 -536 -295 -296 -45 -564 -565 -324 -475 -476 -236 -504 0 6 -265 -534 -536 -295 -296 -46 -564 -565 -324 -475 -476 -236 -504 0 -7 -45 46 -48 -84 0 -5 46 -47 -48 -84 0 -8 -45 46 -47 -84 -86 0 -5 -7 46 -85 -86 0 -5 -7 46 -48 -85 0 -5 -8 46 -85 -86 0 -7 -8 46 -85 -86 0 0
DNF 80 -108 -109 -110 0 -37 -77 80 0 -38 -78 80 0 -39 -79 80 0 -37 -38 -39 80 -110 0 -528 -409 -410 -289 -37 40 -170 -588 -77 -589 -468 -470 -348 -229 -230 0 -528 -409 -410 -289 -38 40 -170 -588 -78 -589 -468 -470 -348 -229 -230 0 -528 -409 -410 -289 -39 40 -170 -588 -79 -589 -468 -470 -348 -229 -230 0 -528 -409 -410 -289 40 -170 -588 -80 -589 -468 -470 -348 -229 -230 0 -37 -78 -79 80 -108 0 -39 -77 -78 80 -108 0 -78 80 -108 -109 0 -38 -77 -79 80 -108 -110 0 -37 -38 80 -109 -110 0 -37 -39 80 -109 -110 0 -38 -39 80 -109 -110 0 -37 -39 -78 80 -109 0 0
DNF 60 -93 -94 -95 0 -17 -57 60 0 -18 -58 60 0 -19 -59 60 0 -17 -18 -19 60 -95 0 -513 -394 -395 -17 20 -274 -155 -57 -573 -574 -453 -455 -333 -214 -215 0 -513 -394 -395 -18 20 -274 -155 -58 -573 -574 -453 -455 -333 -214 -215 0 -513 -394 -395 -19 20 -274 -155 -59 -573 -574 -453 -455 -333 -214 -215 0 -513 -394 -395 20 -274 -155 -60 -573 -574 -453 -455 -333 -214 -215 0 -17 -58 -59 60 -93 0 -19 -57 -58 60 -93 0 -58 60 -93 -94 0 -18 -57 -59 60 -93 -95 0 -17 -18 60 -94 -95 0 -17 -19 60 -94 -95 0 -18 -19 60 -94 -95 0 -17 -19 -58 60 -94 0 0
DNF 62 -96 -97 -98 0 62 -64 -96 -97 0 -21 -61 62 0 -23 62 -63 0 -24 62 -64 0 -21 -23 -24 62 -98 0 -516 -21 22 -277 -546 -548 -307 -308 -61 -576 -577 -336 -487 -488 -248 0 -516 22 -277 -546 -548 -307 -308 -62 -576 -577 -336 -487 -488 -248 0 -23 -61 62 -64 -96 0 -21 62 -63 -64 -96 0 -24 -61 62 -63 -96 -98 0 -21 -23 62 -97 -98 0 -21 -23 62 -64 -97 0 -21 -24 62 -97 -98 0 -23 -24 62 -97 -98 0 0
DNF 42 -81 -82 -83 0 42 -44 -81 -82 0 -1 -41 42 0 -3 42 -43 0 -4 42 -44 0 -1 -3 -4 42 -83 0 -1 2 -262 -531 -533 -292 -293 -41 -561 -562 -321 -472 -473 -233 -501 0 2 -262 -531 -533 -292 -293 -42 -561 -562 -321 -472 -473 -233 -501 0 -3 -41 42 -44 -81 0 -1 42 -43 -44 -81 0 -4 -41 42 -43 -81 -83 0 -1 -3 42 -82 -83 0 -1 -3 42 -44 -82 0 -1 -4 42 -82 -83 0 -3 -4 42 -82 -83 0 0
DNF 64 -96 -97 -98 0 -21 -61 64 0 -22 -62 64 0 -23 -63 64 0 -21 -22 -23 64 -98 0 -516 -397 -398 -21 24 -277 -158 -61 -576 -577 -456 -458 -336 -217 -218 0 -516 -397 -398 -22 24 -277 -158 -62 -576 -577 -456 -458 -336 -217 -218 0 -516 -397 -398 -23 24 -277 -158 -63 -576 -577 -456 -458 -336 -217 -218 0 -516 -397 -398 24 -277 -158 -64 -576 -577 -456 -458 -336 -217 -218 0 -21 -62 -63 64 -96 0 -23 -61 -62 64 -96 0 -62 64 -96 -97 0 -22 -61 -63 64 -96 -98 0 -21 -22 64 -97 -98 0 -21 -23 64 -97 -98 0 -22 -23 64 -97 -98 0 -21 -23 -62 64 -97 0 0
DNF 70 -102 -103 -104 0 70 -72 -102 -103 0 -29 -69 70 0 -31 70 -71 0 -32 70 -72 0 -29 -31 -32 70 -104 0 -522 -283 -29 30 -552 -554 -313 -314 -69 -582 -583 -342 -493 -494 -254 0 -522 -283 30 -552 -554 -313 -314 -70 -582 -583 -342 -493 -494 -254 0 -31 -69 70 -72 -102 0 -29 70 -71 -72 -102 0 -32 -69 70 -71 -102 -104 0 -29 -31 70 -103 -104 0 -29 -31 70 -72 -103 0 -29 -32 70 -103 -104 0 -31 -32 70 -103 -104 0 0
DNF 44 -81 -82 -83 0 -1 -41 44 0 -2 -42 44 0 -3 -43 44 0 -1 -2 -3 44 -83 0 -1 4 -262 -143 -41 -561 -562 -441 -443 -321 -202 -203 -501 -382 -383 0 -2 4 -262 -143 -42 -561 -562 -441 -443 -321 -202 -203 -501 -382 -383 0 -3 4 -262 -143 -43 -561 -562 -441 -443 -321 -202 -203 -501 -382 -383 0 4 -262 -143 -44 -561 -562 -441 -443 -321 -202 -203 -501 -382 -383 0 -1 -42 -43 44 -81 0 -3 -41 -42 44 -81 0 -42 44 -81 -82 0 -2 -41 -43 44 -81 -83 0 -1 -2 44 -82 -83 0 -1 -3 44 -82 -83 0 -2 -3 44 -82 -83 0 -1 -3 -42 44 -82 0 0
DNF 76 -105 -106 -107 0 -33 -73 76 0 -34 -74 76 0 -35 -75 76 0 -33 -34 -35 76 -107 0 -525 -406 -407 -286 -33 36 -167 -73 -585 -586 -465 -467 -345 -226 -227 0 -525 -406 -407 -286 -34 36 -167 -74 -585 -586 -465 -467 -345 -226 -227 0 -525 -406 -407 -286 -35 36 -167 -75 -585 -586 -465 -467 -345 -226 -227 0 -525 -406 -407 -286 36 -167 -76 -585 -586 -465 -467 -345 -226 -227 0 -33 -74 -75 76 -105 0 -35 -73 -74 76 -105 0 -74 76 -105 -106 0 -34 -73 -75 76 -105 -107 0 -33 -34 76 -106 -107 0 -33 -35 76 -106 -107 0 -34 -35 76 -106 -107 0 -33 -35 -74 76 -106 0 0
DNF 66 -99 -100 -101 0 66 -68 -99 -100 0 -25 -65 66 0 -27 66 -67 0 -28 66 -68 0 -25 -27 -28 66 -101 0 -519 -280 -25 26 -549 -551 -310 -311 -65 -579 -580 -339 -490 -491 -251 0 -519 -280 26 -549 -551 -310 -311 -66 -579 -580 -339 -490 -491 -251 0 -27 -65 66 -68 -99 0 -25 66 -67 -68 -99 0 -28 -65 66 -67 -99 -101 0 -25 -27 66 -100 -101 0 -25 -27 66 -68 -100 0 -25 -28 66 -100 -101 0 -27 -28 66 -100 -101 0 0
DNF 74 -105 -106 -107 0 74 -76 -105 -106 0 -33 -73 74 0 -35 74 -75 0 -36 74 -76 0 -33 -35 -36 74 -107 0 -257 -525 -286 -33 34 -555 -557 -316 -317 -73 -586 -585 -345 -496 -497 0 -257 -525 -286 34 -555 -557 -316 -317 -586 -74 -585 -345 -496 -497 0 -35 -73 74 -76 -105 0 -33 74 -75 -76 -105 0 -36 -73 74 -75 -105 -107 0 -33 -35 74 -106 -107 0 -33 -35 74 -76 -106 0 -33 -36 74 -106 -107 0 -35 -36 74 -106 -107 0 0
DNF 54 -90 -91 -92 0 54 -56 -90 -91 0 -13 -53 54 0 -15 54 -55 0 -16 54 -56 0 -13 -15 -16 54 -92 0 -13 14 -271 -540 -542 -301 -302 -53 -570 -571 -330 -481 -482 -242 -510 0 14 -271 -540 -542 -301 -302 -54 -570 -571 -330 -481 -482 -242 -510 0 -15 -53 54 -56 -90 0 -13 54 -55 -56 -90 0 -16 -53 54 -55 -90 -92 0 -13 -15 54 -91 -92 0 -13 -15 54 -56 -91 0 -13 -16 54 -91 -92 0 -15 -16 54 -91 -92 0 0
DNF 68 -99 -100 -101 0 -25 -65 68 0 -26 -66 68 0 -27 -67 68 0 -25 -26 -27 68 -101 0 -519 -400 -401 -280 -25 28 -161 -65 -579 -580 -459 -461 -339 -220 -221 0 -519 -400 -401 -280 -26 28 -161 -66 -579 -580 -459 -461 -339 -220 -221 0 -519 -400 -401 -280 -27 28 -161 -67 -579 -580 -459 -461 -339 -220 -221 0 -519 -400 -401 -280 28 -161 -68 -579 -580 -459 -461 -339 -220 -221 0 -25 -66 -67 68 -99 0 -27 -65 -66 68 -99 0 -66 68 -99 -100 0 -26 -65 -67 68 -99 -101 0 -25 -26 68 -100 -101 0 -25 -27 68 -100 -101 0 -26 -27 68 -100 -101 0 -25 -27 -66 68 -100 0 0
DNF 72 -102 -103 -104 0 -29 -69 72 0 -30 -70 72 0 -31 -71 72 0 -29 -30 -31 72 -104 0 -522 -403 -404 -283 -29 32 -164 -69 -582 -583 -462 -464 -342 -223 -224 0 -522 -403 -404 -283 -30 32 -164 -70 -582 -583 -462 -464 -342 -223 -224 0 -522 -403 -404 -283 -31 32 -164 -71 -582 -583 -462 -464 -342 -223 -224 0 -522 -403 -404 -283 32 -164 -72 -582 -583 -462 -464 -342 -223 -224 0 -29 -70 -71 72 -102 0 -31 -69 -70 72 -102 0 -70 72 -102 -103 0 -30 -69 -71 72 -102 -104 0 -29 -30 72 -103 -104 0 -29 -31 72 -103 -104 0 -30 -31 72 -103 -104 0 -29 -31 -70 72 -103 0 0
DNF 78 -108 -109 -110 0 78 -80 -108 -109 0 -37 -77 78 0 -39 78 -79 0 -40 78 -80 0 -37 -39 -40 78 -110 0 -260 -528 -289 -37 38 -558 -560 -319 -320 -588 -77 -589 -348 -499 -500 0 -260 -528 -289 38 -558 -560 -319 -320 -588 -78 -589 -348 -499 -500 0 -39 -77 78 -80 -108 0 -37 78 -79 -80 -108 0 -40 -77 78 -79 -108 -110 0 -37 -39 78 -109 -110 0 -37 -39 78 -80 -109 0 -37 -40 78 -109 -110 0 -39 -40 78 -109 -110 0 0
DNF 50 -87 -88 -89 0 50 -52 -87 -88 0 -9 -49 50 0 -11 50 -51 0 -12 50 -52 0 -9 -11 -12 50 -89 0 -9 10 -268 -537 -539 -298 -299 -49 -567 -568 -327 -478 -479 -239 -507 0 10 -268 -537 -539 -298 -299 -50 -567 -568 -327 -478 -479 -239 -507 0 -11 -49 50 -52 -87 0 -9 50 -51 -52 -87 0 -12 -49 50 -51 -87 -89 0 -9 -11 50 -88 -89 0 -9 -11 50 -52 -88 0 -9 -12 50 -88 -89 0 -11 -12 50 -88 -89 0 0
DNF 58 -93 -94 -95 0 58 -60 -93 -94 0 -17 -57 58 0 -19 58 -59 0 -20 58 -60 0 -17 -19 -20 58 -95 0 -513 -17 18 -274 -543 -545 -304 -305 -57 -573 -574 -333 -484 -485 -245 0 -513 18 -274 -543 -545 -304 -305 -58 -573 -574 -333 -484 -485 -245 0 -19 -57 58 -60 -93 0 -17 58 -59 -60 -93 0 -20 -57 58 -59 -93 -95 0 -17 -19 58 -94 -95 0 -17 -19 58 -60 -94 0 -17 -20 58 -94 -95 0 -19 -20 58 -94 -95 0 0
DNF 48 -84 -85 -86 0 -5 -45 48 0 -6 -46 48 0 -7 -47 48 0 -5 -6 -7 48 -86 0 -385 -386 -5 8 -265 -146 -45 -564 -565 -444 -446 -324 -205 -206 -504 0 -385 -386 -6 8 -265 -146 -46 -564 -565 -444 -446 -324 -205 -206 -504 0 -385 -386 -7 8 -265 -146 -47 -564 -565 -444 -446 -324 -205 -206 -504 0 -385 -386 8 -265 -146 -48 -564 -565 -444 -446 -324 -205 -206 -504 0 -5 -46 -47 48 -84 0 -7 -45 -46 48 -84 0 -46 48 -84 -85 0 -6 -45 -47 48 -84 -86 0 -5 -6 48 -85 -86 0 -5 -7 48 -85 -86 0 -6 -7 48 -85 -86 0 -5 -7 -46 48 -85 0 0
DNF 52 -87 -88 -89 0 -9 -49 52 0 -10 -50 52 0 -11 -51 52 0 -9 -10 -11 52 -89 0 -388 -389 -9 12 -268 -149 -49 -567 -568 -447 -449 -327 -208 -209 -507 0 -388 -389 -10 12 -268 -149 -50 -567 -568 -447 -449 -327 -208 -209 -507 0 -388 -389 -11 12 -268 -149 -51 -567 -568 -447 -449 -327 -208 -209 -507 0 -388 -389 12 -268 -149 -52 -567 -568 -447 -449 -327 -208 -209 -507 0 -9 -50 -51 52 -87 0 -11 -49 -50 52 -87 0 -50 52 -87 -88 0 -10 -49 -51 52 -87 -89 0 -9 -10 52 -88 -89 0 -9 -11 52 -88 -89 0 -10 -11 52 -88 -89 0 -9 -11 -50 52 -88 0 0
DNF 56 -90 -91 -92 0 -13 -53 56 0 -14 -54 56 0 -15 -55 56 0 -13 -14 -15 56 -92 0 -391 -392 -13 16 -271 -152 -53 -570 -571 -450 -452 -330 -211 -212 -510 0 -391 -392 -14 16 -271 -152 -54 -570 -571 -450 -452 -330 -211 -212 -510 0 -391 -392 -15 16 -271 -152 -55 -570 -571 -450 -452 -330 -211 -212 -510 0 -391 -392 16 -271 -152 -56 -570 -571 -450 -452 -330 -211 -212 -510 0 -13 -54 -55 56 -90 0 -15 -53 -54 56 -90 0 -54 56 -90 -91 0 -14 -53 -55 56 -90 -92 0 -13 -14 56 -91 -92 0 -13 -15 56 -91 -92 0 -14 -15 56 -91 -92 0 -13 -15 -54 56 -91 0 0
DNF 18 -93 -94 -95 0 -394 -395 -18 -155 -423 -184 58 -453 -455 -214 -215 -364 0 -17 18 -57 0 18 -19 -59 0 18 -20 -60 0 18 -19 -57 -93 -95 0 18 -19 -20 -57 -93 0 -17 18 -20 -59 -93 0 -17 18 -59 -93 -95 0 18 -20 -93 -94 0 -17 18 -19 -20 -94 0 -17 18 -19 -94 -95 0 0
DNF 6 -84 -85 -86 0 -385 -386 -6 -146 -414 46 -175 -444 -446 -205 -206 -355 0 -5 6 -45 0 6 -7 -47 0 6 -8 -48 0 6 -7 -45 -84 -86 0 6 -7 -8 -45 -84 0 -5 6 -8 -47 -84 0 -5 6 -47 -84 -86 0 6 -8 -84 -85 0 -5 6 -7 -8 -85 0 -5 6 -7 -85 -86 0 0
DNF 12 -87 -88 -89 0 -12 -537 -539 -417 -298 -299 52 -178 -478 -479 -358 -239 0 -9 12 -49 0 -10 12 -50 0 -11 12 -51 0 -10 -11 12 -49 -87 0 -11 12 -49 -87 -89 0 -9 12 -51 -87 -89 0 -9 -10 12 -51 -87 0 -10 12 -87 -88 0 -9 -10 -11 12 -88 0 -9 -11 12 -88 -89 0 0
DNF 28 -99 -100 -101 0 -28 -549 -551 -429 -310 -311 -190 68 -490 -491 -370 -251 0 -25 28 -65 0 -26 28 -66 0 -27 28 -67 0 -26 -27 28 -65 -99 0 -27 28 -65 -99 -101 0 -25 28 -67 -99 -101 0 -25 -26 28 -67 -99 0 -26 28 -99 -100 0 -25 -26 -27 28 -100 0 -25 -27 28 -100 -101 0 0
DNF 24 -96 -97 -98 0 -24 -546 -548 -426 -307 -308 -187 64 -487 -488 -367 -248 0 -21 24 -61 0 -22 24 -62 0 -23 24 -63 0 -22 -23 24 -61 -96 0 -23 24 -61 -96 -98 0 -21 24 -63 -96 -98 0 -21 -22 24 -63 -96 0 -22 24 -96 -97 0 -21 -22 -23 24 -97 0 -21 -23 24 -97 -98 0 0
DNF 30 -102 -103 -104 0 -403 -404 -30 -164 -432 -193 70 -462 -464 -223 -224 -373 0 -29 30 -69 0 30 -31 -71 0 30 -32 -72 0 30 -31 -69 -102 -104 0 30 -31 -32 -69 -102 0 -29 30 -32 -71 -102 0 -29 30 -71 -102 -104 0 30 -32 -102 -103 0 -29 30 -31 -32 -103 0 -29 30 -31 -103 -104 0 0
DNF 22 -96 -97 -98 0 -397 -398 -22 -158 -426 -187 62 -456 -458 -217 -218 -367 0 -21 22 -61 0 22 -23 -63 0 22 -24 -64 0 22 -23 -61 -96 -98 0 22 -23 -24 -61 -96 0 -21 22 -24 -63 -96 0 -21 22 -63 -96 -98 0 22 -24 -96 -97 0 -21 22 -23 -24 -97 0 -21 22 -23 -97 -98 0 0
DNF 32 -102 -103 -104 0 -32 -552 -554 -432 -313 -314 -193 72 -493 -494 -373 -254 0 -29 32 -69 0 -30 32 -70 0 -31 32 -71 0 -30 -31 32 -69 -102 0 -31 32 -69 -102 -104 0 -29 32 -71 -102 -104 0 -29 -30 32 -71 -102 0 -30 32 -102 -103 0 -29 -30 -31 32 -103 0 -29 -31 32 -103 -104 0 0
DNF 20 -93 -94 -95 0 -20 -543 -545 -423 -304 -305 -184 60 -484 -485 -364 -245 0 -17 20 -57 0 -18 20 -58 0 -19 20 -59 0 -18 -19 20 -57 -93 0 -19 20 -57 -93 -95 0 -17 20 -59 -93 -95 0 -17 -18 20 -59 -93 0 -18 20 -93 -94 0 -17 -18 -19 20 -94 0 -17 -19 20 -94 -95 0 0
DNF 34 -105 -106 -107 0 -406 -407 -34 -167 -435 -196 74 -465 -467 -226 -227 -376 0 -33 34 -73 0 34 -35 -75 0 34 -36 -76 0 34 -35 -73 -105 -107 0 34 -35 -36 -73 -105 0 -33 34 -36 -75 -105 0 -33 34 -75 -105 -107 0 34 -36 -105 -106 0 -33 34 -35 -36 -106 0 -33 34 -35 -106 -107 0 0
DNF 8 -84 -85 -86 0 -8 -534 -536 -414 -295 -296 48 -175 -475 -476 -355 -236 0 -5 8 -45 0 -6 8 -46 0 -7 8 -47 0 -6 -7 8 -45 -84 0 -7 8 -45 -84 -86 0 -5 8 -47 -84 -86 0 -5 -6 8 -47 -84 0 -6 8 -84 -85 0 -5 -6 -7 8 -85 0 -5 -7 8 -85 -86 0 0
DNF 40 -108 -109 -110 0 -260 -40 -558 -560 -438 -319 -320 -199 80 -499 -500 -379 0 -37 40 -77 0 -38 40 -78 0 -39 40 -79 0 -38 -39 40 -77 -108 0 -39 40 -77 -108 -110 0 -37 40 -79 -108 -110 0 -37 -38 40 -79 -108 0 -38 40 -108 -109 0 -37 -38 -39 40 -109 0 -37 -39 40 -109 -110 0 0
DNF 26 -99 -100 -101 0 -400 -401 -26 -161 -429 -190 66 -459 -461 -220 -221 -370 0 -25 26 -65 0 26 -27 -67 0 26 -28 -68 0 26 -27 -65 -99 -101 0 26 -27 -28 -65 -99 0 -25 26 -28 -67 -99 0 -25 26 -67 -99 -101 0 26 -28 -99 -100 0 -25 26 -27 -28 -100 0 -25 26 -27 -100 -101 0 0
DNF 36 -105 -106 -107 0 -257 -36 -555 -557 -435 -316 -317 -196 76 -496 -497 -376 0 -33 36 -73 0 -34 36 -74 0 -35 36 -75 0 -34 -35 36 -73 -105 0 -35 36 -73 -105 -107 0 -33 36 -75 -105 -107 0 -33 -34 36 -75 -105 0 -34 36 -105 -106 0 -33 -34 -35 36 -106 0 -33 -35 36 -106 -107 0 0
DNF 16 -90 -91 -92 0 -16 -540 -542 -420 -301 -302 56 -181 -481 -482 -361 -242 0 -13 16 -53 0 -14 16 -54 0 -15 16 -55 0 -14 -15 16 -53 -90 0 -15 16 -53 -90 -92 0 -13 16 -55 -90 -92 0 -13 -14 16 -55 -90 0 -14 16 -90 -91 0 -13 -14 -15 16 -91 0 -13 -15 16 -91 -92 0 0
DNF 2 -81 -82 -83 0 -2 -143 -411 42 -172 -441 -443 -202 -203 -352 -382 -383 0 -1 2 -41 0 2 -3 -43 0 2 -4 -44 0 2 -3 -41 -81 -83 0 2 -3 -4 -41 -81 0 -1 2 -4 -43 -81 0 -1 2 -43 -81 -83 0 2 -4 -81 -82 0 -1 2 -3 -4 -82 0 -1 2 -3 -82 -83 0 0
DNF 10 -87 -88 -89 0 -388 -389 -10 -149 -417 50 -178 -447 -449 -208 -209 -358 0 -9 10 -49 0 10 -11 -51 0 10 -12 -52 0 10 -11 -49 -87 -89 0 10 -11 -12 -49 -87 0 -9 10 -12 -51 -87 0 -9 10 -51 -87 -89 0 10 -12 -87 -88 0 -9 10 -11 -12 -88 0 -9 10 -11 -88 -89 0 0
DNF 38 -108 -109 -110 0 -409 -410 -38 -170 -438 -199 78 -468 -470 -229 -230 -379 0 -37 38 -77 0 38 -39 -79 0 38 -40 -80 0 38 -39 -77 -108 -110 0 38 -39 -40 -77 -108 0 -37 38 -40 -79 -108 0 -37 38 -79 -108 -110 0 38 -40 -108 -109 0 -37 38 -39 -40 -109 0 -37 38 -39 -109 -110 0 0
DNF 4 -81 -82 -83 0 -4 -531 -533 -411 -292 -293 44 -172 -472 -473 -352 -233 0 -1 4 -41 0 -2 4 -42 0 -3 4 -43 0 -2 -3 4 -41 -81 0 -3 4 -41 -81 -83 0 -1 4 -43 -81 -83 0 -1 -2 4 -43 -81 0 -2 4 -81 -82 0 -1 -2 -3 4 -82 0 -1 -3 4 -82 -83 0 0
DNF 14 -90 -91 -92 0 -391 -392 -14 -152 -420 54 -181 -450 -452 -211 -212 -361 0 -13 14 -53 0 14 -15 -55 0 14 -16 -56 0 14 -15 -53 -90 -92 0 14 -15 -16 -53 -90 0 -13 14 -16 -55 -90 0 -13 14 -55 -90 -92 0 14 -16 -90 -91 0 -13 14 -15 -16 -91 0 -13 14 -15 -91 -92 0 0
DNF 35 -105 -106 -107 0 -257 -525 -406 -407 -286 -35 -167 75 -496 -497 -376 0 -33 35 -73 0 -34 35 -74 0 35 -36 -76 0 -34 35 -76 -105 -106 0 -33 -34 35 -76 -105 0 -33 35 -36 -74 -105 0 35 -36 -74 -105 -106 0 -33 35 -74 -105 -107 0 -33 35 -76 -105 -107 0 -33 -34 35 -36 -106 -107 0 -34 35 -36 -73 -105 -107 0 0
DNF 37 -108 -109 -110 0 -260 -289 -37 -170 -319 -320 -199 77 -348 -229 -230 0 37 -38 -78 0 37 -39 -79 0 37 -40 -80 0 37 -39 -40 -78 -108 0 37 -40 -78 -108 -109 0 37 -38 -80 -108 -109 0 37 -38 -39 -80 -108 0 37 -39 -78 -108 -110 0 37 -39 -80 -108 -110 0 37 -38 -40 -79 -108 -110 0 37 -38 -39 -40 -109 -110 0 0
DNF 1 -81 -82 -83 0 -1 -262 -143 -292 -293 41 -172 -321 -202 -203 -233 0 1 -2 -42 0 1 -3 -43 0 1 -4 -44 0 1 -3 -4 -42 -81 0 1 -4 -42 -81 -82 0 1 -2 -44 -81 -82 0 1 -2 -3 -44 -81 0 1 -3 -42 -81 -83 0 1 -3 -44 -81 -83 0 1 -2 -4 -43 -81 -83 0 1 -2 -3 -4 -82 -83 0 0
DNF 5 -84 -85 -86 0 -5 -265 -146 -295 -296 45 -175 -324 -205 -206 -236 0 5 -6 -46 0 5 -7 -47 0 5 -8 -48 0 5 -7 -8 -46 -84 0 5 -8 -46 -84 -85 0 5 -6 -48 -84 -85 0 5 -6 -7 -48 -84 0 5 -7 -46 -84 -86 0 5 -7 -48 -84 -86 0 5 -6 -8 -47 -84 -86 0 5 -6 -7 -8 -85 -86 0 0
DNF 33 -105 -106 -107 0 -257 -286 -33 -167 -316 -317 -196 73 -345 -226 -227 0 33 -34 -74 0 33 -35 -75 0 33 -36 -76 0 33 -35 -36 -74 -105 0 33 -36 -74 -105 -106 0 33 -34 -76 -105 -106 0 33 -34 -35 -76 -105 0 33 -35 -74 -105 -107 0 33 -35 -76 -105 -107 0 33 -34 -36 -75 -105 -107 0 33 -34 -35 -36 -106 -107 0 0
DNF 31 -102 -103 -104 0 -522 -403 -404 -283 -31 -164 71 -493 -494 -373 -254 0 -29 31 -69 0 -30 31 -70 0 31 -32 -72 0 -30 31 -72 -102 -103 0 -29 -30 31 -72 -102 0 -29 31 -32 -70 -102 0 31 -32 -70 -102 -103 0 -29 31 -70 -102 -104 0 -29 31 -72 -102 -104 0 -29 -30 31 -32 -103 -104 0 -30 31 -32 -69 -102 -104 0 0
DNF 29 -102 -103 -104 0 -283 -29 -164 -313 -314 -193 69 -342 -223 -224 -254 0 29 -30 -70 0 29 -31 -71 0 29 -32 -72 0 29 -31 -32 -70 -102 0 29 -32 -70 -102 -103 0 29 -30 -72 -102 -103 0 29 -30 -31 -72 -102 0 29 -31 -70 -102 -104 0 29 -31 -72 -102 -104 0 29 -30 -32 -71 -102 -104 0 29 -30 -31 -32 -103 -104 0 0
DNF 39 -108 -109 -110 0 -260 -528 -409 -410 -289 -39 -170 79 -499 -500 -379 0 -37 39 -77 0 -38 39 -78 0 39 -40 -80 0 -38 39 -80 -108 -109 0 -37 -38 39 -80 -108 0 -37 39 -40 -78 -108 0 39 -40 -78 -108 -109 0 -37 39 -78 -108 -110 0 -37 39 -80 -108 -110 0 -37 -38 39 -40 -109 -110 0 -38 39 -40 -77 -108 -110 0 0
DNF 3 -81 -82 -83 0 -3 -262 -143 43 -472 -473 -352 -233 -501 -382 -383 0 -1 3 -41 0 -2 3 -42 0 3 -4 -44 0 -2 3 -44 -81 -82 0 -1 -2 3 -44 -81 0 -1 3 -4 -42 -81 0 3 -4 -42 -81 -82 0 -1 3 -42 -81 -83 0 -1 3 -44 -81 -83 0 -1 -2 3 -4 -82 -83 0 -2 3 -4 -41 -81 -83 0 0
DNF 25 -99 -100 -101 0 -280 -25 -161 -310 -311 -190 65 -339 -220 -221 -251 0 25 -26 -66 0 25 -27 -67 0 25 -28 -68 0 25 -27 -28 -66 -99 0 25 -28 -66 -99 -100 0 25 -26 -68 -99 -100 0 25 -26 -27 -68 -99 0 25 -27 -66 -99 -101 0 25 -27 -68 -99 -101 0 25 -26 -28 -67 -99 -101 0 25 -26 -27 -28 -100 -101 0 0
DNF 27 -99 -100 -101 0 -519 -400 -401 -280 -27 -161 67 -490 -491 -370 -251 0 -25 27 -65 0 -26 27 -66 0 27 -28 -68 0 -26 27 -68 -99 -100 0 -25 -26 27 -68 -99 0 -25 27 -28 -66 -99 0 27 -28 -66 -99 -100 0 -25 27 -66 -99 -101 0 -25 27 -68 -99 -101 0 -25 -26 27 -28 -100 -101 0 -26 27 -28 -65 -99 -101 0 0
DNF 21 -96 -97 -98 0 -21 -277 -158 -307 -308 -187 61 -336 -217 -218 -248 0 21 -22 -62 0 21 -23 -63 0 21 -24 -64 0 21 -23 -24 -62 -96 0 21 -24 -62 -96 -97 0 21 -22 -64 -96 -97 0 21 -22 -23 -64 -96 0 21 -23 -62 -96 -98 0 21 -23 -64 -96 -98 0 21 -22 -24 -63 -96 -98 0 21 -22 -23 -24 -97 -98 0 0
DNF 15 -90 -91 -92 0 -391 -392 -15 -271 -152 55 -481 -482 -361 -242 -510 0 -13 15 -53 0 -14 15 -54 0 15 -16 -56 0 -14 15 -56 -90 -91 0 -13 -14 15 -56 -90 0 -13 15 -16 -54 -90 0 15 -16 -54 -90 -91 0 -13 15 -54 -90 -92 0 -13 15 -56 -90 -92 0 -13 -14 15 -16 -91 -92 0 -14 15 -16 -53 -90 -92 0 0
DNF 7 -84 -85 -86 0 -385 -386 -7 -265 -146 47 -475 -476 -355 -236 -504 0 -5 7 -45 0 -6 7 -46 0 7 -8 -48 0 -6 7 -48 -84 -85 0 -5 -6 7 -48 -84 0 -5 7 -8 -46 -84 0 7 -8 -46 -84 -85 0 -5 7 -46 -84 -86 0 -5 7 -48 -84 -86 0 -5 -6 7 -8 -85 -86 0 -6 7 -8 -45 -84 -86 0 0
DNF 9 -87 -88 -89 0 -9 -268 -149 -298 -299 49 -178 -327 -208 -209 -239 0 9 -10 -50 0 9 -11 -51 0 9 -12 -52 0 9 -11 -12 -50 -87 0 9 -12 -50 -87 -88 0 9 -10 -52 -87 -88 0 9 -10 -11 -52 -87 0 9 -11 -50 -87 -89 0 9 -11 -52 -87 -89 0 9 -10 -12 -51 -87 -89 0 9 -10 -11 -12 -88 -89 0 0
DNF 17 -93 -94 -95 0 -17 -274 -155 -304 -305 -184 57 -333 -214 -215 -245 0 17 -18 -58 0 17 -19 -59 0 17 -20 -60 0 17 -19 -20 -58 -93 0 17 -20 -58 -93 -94 0 17 -18 -60 -93 -94 0 17 -18 -19 -60 -93 0 17 -19 -58 -93 -95 0 17 -19 -60 -93 -95 0 17 -18 -20 -59 -93 -95 0 17 -18 -19 -20 -94 -95 0 0
DNF 13 -90 -91 -92 0 -13 -271 -152 -301 -302 53 -181 -330 -211 -212 -242 0 13 -14 -54 0 13 -15 -55 0 13 -16 -56 0 13 -15 -16 -54 -90 0 13 -16 -54 -90 -91 0 13 -14 -56 -90 -91 0 13 -14 -15 -56 -90 0 13 -15 -54 -90 -92 0 13 -15 -56 -90 -92 0 13 -14 -16 -55 -90 -92 0 13 -14 -15 -16 -91 -92 0 0
DNF 19 -93 -94 -95 0 -513 -394 -395 -19 -274 -155 59 -484 -485 -364 -245 0 -17 19 -57 0 -18 19 -58 0 19 -20 -60 0 -18 19 -60 -93 -94 0 -17 -18 19 -60 -93 0 -17 19 -20 -58 -93 0 19 -20 -58 -93 -94 0 -17 19 -58 -93 -95 0 -17 19 -60 -93 -95 0 -17 -18 19 -20 -94 -95 0 -18 19 -20 -57 -93 -95 0 0
DNF 11 -87 -88 -89 0 -388 -389 -11 -268 -149 51 -478 -479 -358 -239 -507 0 -9 11 -49 0 -10 11 -50 0 11 -12 -52 0 -10 11 -52 -87 -88 0 -9 -10 11 -52 -87 0 -9 11 -12 -50 -87 0 11 -12 -50 -87 -88 0 -9 11 -50 -87 -89 0 -9 11 -52 -87 -89 0 -9 -10 11 -12 -88 -89 0 -10 11 -12 -49 -87 -89 0 0
DNF 23 -96 -97 -98 0 -516 -397 -398 -23 -277 -158 63 -487 -488 -367 -248 0 -21 23 -61 0 -22 23 -62 0 23 -24 -64 0 -22 23 -64 -96 -97 0 -21 -22 23 -64 -96 0 -21 23 -24 -62 -96 0 23 -24 -62 -96 -97 0 -21 23 -62 -96 -98 0 -21 23 -64 -96 -98 0 -21 -22 23 -24 -97 -98 0 -22 23 -24 -61 -96 -98 0 0
321 324 327 330 333 336 339 342 345 348 0
411 414 417 420 423 426 429 432 435 438 0
441 444 447 450 453 456 459 462 465 468 0
501 504 507 510 513 516 519 522 525 528 0
531 534 537 540 543 546 549 552 555 558 0
561 564 567 570 573 576 579 582 585 588 0
172 175 178 181 184 187 190 193 196 199 0
202 205 208 211 214 217 220 223 226 229 0
262 265 268 271 274 277 280 283 286 289 0
292 295 298 301 304 307 310 313 316 319 0
352 355 358 361 364 367 370 373 376 379 0
382 385 388 391 394 397 400 403 406 409 0
472 475 478 481 484 487 490 493 496 499 0
562 565 568 571 574 577 580 583 586 589 0
143 146 149 152 155 158 161 164 167 170 0
203 206 209 212 215 218 221 224 227 230 0
233 236 239 242 245 248 251 254 257 260 0
293 296 299 302 305 308 311 314 317 320 0
383 386 389 392 395 398 401 404 407 410 0
443 446 449 452 455 458 461 464 467 470 0
473 476 479 482 485 488 491 494 497 500 0
533 536 539 542 545 548 551 554 557 560 0
-321 81 0
-324 84 0
-327 87 0
-330 90 0
-333 93 0
-336 96 0
-339 99 0
-342 102 0
-345 105 0
-348 108 0
-411 81 0
-414 84 0
-417 87 0
-420 90 0
-423 93 0
-426 96 0
-429 99 0
-432 102 0
-435 105 0
-438 108 0
-441 81 0
-444 84 0
-447 87 0
-450 90 0
-453 93 0
-456 96 0
-459 99 0
-462 102 0
-465 105 0
-468 108 0
-501 81 0
-504 84 0
-507 87 0
-510 90 0
-513 93 0
-516 96 0
-519 99 0
-522 102 0
-525 105 0
-528 108 0
-531 81 0
-534 84 0
-537 87 0
-540 90 0
-543 93 0
-546 96 0
-549 99 0
-552 102 0
-555 105 0
-558 108 0
-561 81 0
-564 84 0
-567 87 0
-570 90 0
-573 93 0
-576 96 0
-579 99 0
-582 102 0
-585 105 0
-588 108 0
-172 82 0
-175 85 0
-178 88 0
-181 91 0
-184 94 0
-187 97 0
-190 100 0
-193 103 0
-196 106 0
-199 109 0
-202 82 0
-205 85 0
-208 88 0
-211 91 0
-214 94 0
-217 97 0
-220 100 0
-223 103 0
-226 106 0
-229 109 0
-262 82 0
-265 85 0
-268 88 0
-271 91 0
-274 94 0
-277 97 0
-280 100 0
-283 103 0
-286 106 0
-289 109 0
-292 82 0
-295 85 0
-298 88 0
-301 91 0
-304 94 0
-307 97 0
-310 100 0
-313 103 0
-316 106 0
-319 109 0
-352 82 0
-355 85 0
-358 88 0
-361 91 0
-364 94 0
-367 97 0
-370 100 0
-373 103 0
-376 106 0
-379 109 0
-382 82 0
-385 85 0
-388 88 0
-391 91 0
-394 94 0
-397 97 0
-400 100 0
-403 103 0
-406 106 0
-409 109 0
-472 82 0
-475 85 0
-478 88 0
-481 91 0
-484 94 0
-487 97 0
-490 100 0
-493 103 0
-496 106 0
-499 109 0
-562 82 0
-565 85 0
-568 88 0
-571 91 0
-574 94 0
-577 97 0
-580 100 0
-583 103 0
-586 106 0
-589 109 0
-143 83 0
-146 86 0
-149 89 0
-152 92 0
-155 95 0
-158 98 0
-161 101 0
-164 104 0
-167 107 0
-170 110 0
-203 83 0
-206 86 0
-209 89 0
-212 92 0
-215 95 0
-218 98 0
-221 101 0
-224 104 0
-227 107 0
-230 110 0
-233 83 0
-236 86 0
-239 89 0
-242 92 0
-245 95 0
-248 98 0
-251 101 0
-254 104 0
-257 107 0
-260 110 0
-293 83 0
-296 86 0
-299 89 0
-302 92 0
-305 95 0
-308 98 0
-311 101 0
-314 104 0
-317 107 0
-320 110 0
-383 83 0
-386 86 0
-389 89 0
-392 92 0
-395 95 0
-398 98 0
-401 101 0
-404 104 0
-407 107 0
-410 110 0
-443 83 0
-446 86 0
-449 89 0
-452 92 0
-455 95 0
-458 98 0
-461 101 0
-464 104 0
-467 107 0
-470 110 0
-473 83 0
-476 86 0
-479 89 0
-482 92 0
-485 95 0
-488 98 0
-491 101 0
-494 104 0
-497 107 0
-500 110 0
-533 83 0
-536 86 0
-539 89 0
-542 92 0
-545 95 0
-548 98 0
-551 101 0
-554 104 0
-557 107 0
-560 110 0
